p tw 71 77
1 2
2 13
3 4
4 5
4 38
5 6
6 7
6 52
7 64
8 9
9 10
10 11
11 12
12 14
13 24
14 15
15 16
16 17
17 18
18 19
19 20
20 21
21 22
22 23
23 25
24 35
25 26
26 27
27 28
28 29
29 30
30 31
31 32
32 33
33 34
34 36
35 46
36 37
37 38
38 39
39 40
39 41
40 67
41 42
42 43
43 44
44 45
44 49
45 47
46 57
47 48
48 49
49 50
50 51
51 52
52 53
53 54
53 55
54 67
55 56
56 58
57 68
58 59
59 60
60 61
60 8
61 62
62 63
63 8
64 65
65 66
66 67
67 69
68 70
70 71
71 3
71 8
